; benchmark generated from python API
(set-info :status unknown)
(declare-fun syscall_stub_newfstatat_83_64 () (_ BitVec 64))
(declare-fun mem_c0080014_89_32 () (_ BitVec 32))
(declare-fun mem_c0080018_88_32 () (_ BitVec 32))
(declare-fun mem_c0080024_86_32 () (_ BitVec 32))
(declare-fun mem_c0080020_87_32 () (_ BitVec 32))
(declare-fun mem_c0080010_84_32 () (_ BitVec 32))
(declare-fun mem_c0080008_85_32 () (_ BitVec 32))
(declare-fun mem_c0000f45_79_992 () (_ BitVec 992))
(declare-fun mem_c0001010_98_32 () (_ BitVec 32))
(declare-fun mem_0_345_8 () (_ BitVec 8))
(assert
 (let ((?x47 ((_ extract 31 0) syscall_stub_newfstatat_83_64)))
 (bvule ?x47 (_ bv4294963200 32))))
(assert
 (let ((?x123 (bvadd mem_c0080018_88_32 mem_c0080014_89_32)))
 (let ((?x129 (concat (_ bv0 32) ?x123)))
 (let ((?x3465604 (concat (concat (_ bv0 26) mem_c0080024_86_32) (_ bv0 1))))
 (let ((?x201 (concat (_ bv0 27) mem_c0080024_86_32)))
 (let ((?x3466476 (bvadd ?x201 ?x3465604)))
 (let ((?x2820984 (concat ?x3466476 (_ bv0 3))))
 (let ((?x3390313 (concat (concat (_ bv0 29) mem_c0080024_86_32) (_ bv0 1))))
 (let ((?x190 (concat (_ bv0 30) mem_c0080024_86_32)))
 (let ((?x3466412 (bvadd (bvadd ?x190 ?x3390313) ?x2820984)))
 (let ((?x3464998 (concat ?x3466412 (_ bv0 2))))
 (let ((?x168 (concat (_ bv0 32) mem_c0080020_87_32)))
 (let ((?x2822417 (bvadd ?x168 ?x3464998)))
 (let ((?x3461354 (concat (concat (_ bv0 29) mem_c0080010_84_32) (_ bv0 1))))
 (let ((?x161 (concat (_ bv0 30) mem_c0080010_84_32)))
 (let ((?x3462866 (bvadd ?x161 ?x3461354)))
 (let ((?x3464565 (concat ?x3462866 (_ bv0 2))))
 (let ((?x143 (concat (_ bv0 32) mem_c0080008_85_32)))
 (let ((?x3465119 (bvadd ?x143 ?x3464565)))
 (let (($x3465086 (bvsle ?x2822417 ?x3465119)))
 (let ((?x3465067 (ite $x3465086 ?x3465119 ?x2822417)))
 (let (($x3465958 (bvsle ?x129 ?x3465067)))
 (let ((?x2545777 (ite $x3465958 ?x3465067 ?x129)))
 (let (($x3461414 (= (_ bv0 64) ?x2545777)))
 (not $x3461414)))))))))))))))))))))))))
(assert
 (let ((?x2189 ((_ extract 900 900) mem_c0000f45_79_992)))
 (= (_ bv0 1) ?x2189)))
(assert
 (let ((?x3699 ((_ extract 891 891) mem_c0000f45_79_992)))
 (let (($x4297 (= (_ bv0 1) ?x3699)))
 (not $x4297))))
(assert
 (let ((?x644 ((_ extract 647 640) mem_c0000f45_79_992)))
 (let ((?x3676 ((_ extract 639 632) mem_c0000f45_79_992)))
 (let ((?x4549 ((_ extract 631 624) mem_c0000f45_79_992)))
 (let ((?x636 ((_ extract 623 616) mem_c0000f45_79_992)))
 (let ((?x672 ((_ extract 615 608) mem_c0000f45_79_992)))
 (let ((?x784 ((_ extract 607 600) mem_c0000f45_79_992)))
 (let ((?x18745 (concat (concat ((_ extract 591 584) mem_c0000f45_79_992) ((_ extract 599 592) mem_c0000f45_79_992)) ?x784)))
 (let ((?x23636 (concat (concat (concat (concat (concat ?x18745 ?x672) ?x636) ?x4549) ?x3676) ?x644)))
 (let ((?x3977 ((_ extract 583 576) mem_c0000f45_79_992)))
 (let ((?x935 ((_ extract 575 568) mem_c0000f45_79_992)))
 (let ((?x4611 ((_ extract 567 560) mem_c0000f45_79_992)))
 (let ((?x3400 ((_ extract 559 552) mem_c0000f45_79_992)))
 (let ((?x3784 ((_ extract 551 544) mem_c0000f45_79_992)))
 (let ((?x3913 ((_ extract 543 536) mem_c0000f45_79_992)))
 (let ((?x12701 (concat (concat ((_ extract 527 520) mem_c0000f45_79_992) ((_ extract 535 528) mem_c0000f45_79_992)) ?x3913)))
 (let ((?x13258 (concat ?x12701 ?x3784)))
 (let ((?x13066 (concat (concat (concat (concat ?x13258 ?x3400) ?x4611) ?x935) ?x3977)))
 (bvule ?x13066 ?x23636)))))))))))))))))))
(assert
 (let ((?x8705 ((_ extract 888 888) mem_c0000f45_79_992)))
 (let (($x9102 (= (_ bv0 1) ?x8705)))
 (not $x9102))))
(assert
 (let ((?x3977 ((_ extract 583 576) mem_c0000f45_79_992)))
 (let ((?x935 ((_ extract 575 568) mem_c0000f45_79_992)))
 (let ((?x4611 ((_ extract 567 560) mem_c0000f45_79_992)))
 (let ((?x3400 ((_ extract 559 552) mem_c0000f45_79_992)))
 (let ((?x3784 ((_ extract 551 544) mem_c0000f45_79_992)))
 (let ((?x3913 ((_ extract 543 536) mem_c0000f45_79_992)))
 (let ((?x12701 (concat (concat ((_ extract 527 520) mem_c0000f45_79_992) ((_ extract 535 528) mem_c0000f45_79_992)) ?x3913)))
 (let ((?x13258 (concat ?x12701 ?x3784)))
 (let ((?x13066 (concat (concat (concat (concat ?x13258 ?x3400) ?x4611) ?x935) ?x3977)))
 (let ((?x2427 ((_ extract 775 768) mem_c0000f45_79_992)))
 (let ((?x2419 ((_ extract 767 760) mem_c0000f45_79_992)))
 (let ((?x2429 ((_ extract 759 752) mem_c0000f45_79_992)))
 (let ((?x2417 ((_ extract 751 744) mem_c0000f45_79_992)))
 (let ((?x2410 ((_ extract 743 736) mem_c0000f45_79_992)))
 (let ((?x2411 ((_ extract 735 728) mem_c0000f45_79_992)))
 (let ((?x4124 (concat (concat ((_ extract 719 712) mem_c0000f45_79_992) ((_ extract 727 720) mem_c0000f45_79_992)) ?x2411)))
 (let ((?x4642 (concat ?x4124 ?x2410)))
 (let ((?x3823 (concat (concat (concat (concat ?x4642 ?x2417) ?x2429) ?x2419) ?x2427)))
 (let (($x21705 (bvule ?x3823 ?x13066)))
 (not $x21705)))))))))))))))))))))
(assert
 (let ((?x2357 ((_ extract 815 808) mem_c0000f45_79_992)))
 (let ((?x2417 ((_ extract 751 744) mem_c0000f45_79_992)))
 (let (($x1690 (= ?x2417 ?x2357)))
 (let (($x3670 (not $x1690)))
 (let ((?x2362 ((_ extract 807 800) mem_c0000f45_79_992)))
 (let ((?x2410 ((_ extract 743 736) mem_c0000f45_79_992)))
 (let (($x1703 (= ?x2410 ?x2362)))
 (let (($x3664 (not $x1703)))
 (let ((?x2345 ((_ extract 783 776) mem_c0000f45_79_992)))
 (let ((?x2400 ((_ extract 719 712) mem_c0000f45_79_992)))
 (let (($x1701 (= ?x2400 ?x2345)))
 (let (($x3671 (not $x1701)))
 (let ((?x2363 ((_ extract 799 792) mem_c0000f45_79_992)))
 (let ((?x2411 ((_ extract 735 728) mem_c0000f45_79_992)))
 (let (($x1704 (= ?x2411 ?x2363)))
 (let (($x3672 (not $x1704)))
 (let ((?x2346 ((_ extract 791 784) mem_c0000f45_79_992)))
 (let ((?x2401 ((_ extract 727 720) mem_c0000f45_79_992)))
 (let (($x1693 (= ?x2401 ?x2346)))
 (let (($x4136 (not $x1693)))
 (let ((?x2364 ((_ extract 831 824) mem_c0000f45_79_992)))
 (let ((?x2419 ((_ extract 767 760) mem_c0000f45_79_992)))
 (let (($x1155 (= ?x2419 ?x2364)))
 (let (($x4137 (not $x1155)))
 (let ((?x2374 ((_ extract 839 832) mem_c0000f45_79_992)))
 (let ((?x2427 ((_ extract 775 768) mem_c0000f45_79_992)))
 (let (($x1152 (= ?x2427 ?x2374)))
 (let (($x4139 (not $x1152)))
 (let ((?x2349 ((_ extract 823 816) mem_c0000f45_79_992)))
 (let ((?x2429 ((_ extract 759 752) mem_c0000f45_79_992)))
 (let (($x1714 (= ?x2429 ?x2349)))
 (let (($x4539 (not $x1714)))
 (let (($x6038 (or $x4539 $x4139 $x4137 $x4136 $x3672 $x3671 $x3664 $x3670)))
 (let (($x9215 (not $x6038)))
 (let ((?x4533 (concat (concat (concat (concat (concat ?x2345 ?x2346) ?x2363) ?x2362) ?x2357) ?x2349)))
 (let ((?x4215 (concat ?x4533 ?x2364)))
 (let ((?x3812 (concat ?x4215 ?x2374)))
 (let ((?x3646 (bvmul (_ bv18446744073709551615 64) ?x3812)))
 (let ((?x3809 (concat (concat (concat (concat (concat ?x2400 ?x2401) ?x2411) ?x2410) ?x2417) ?x2429)))
 (let ((?x3823 (concat (concat ?x3809 ?x2419) ?x2427)))
 (let ((?x3827 (bvadd ?x3823 ?x3646)))
 (let ((?x2482 ((_ extract 63 63) ?x3827)))
 (let (($x2285 (= (_ bv1 1) ?x2482)))
 (or $x2285 $x9215)))))))))))))))))))))))))))))))))))))))))))))
(assert
 (= (_ bv0 32) mem_c0001010_98_32))
(assert
 (let ((?x3977 ((_ extract 583 576) mem_c0000f45_79_992)))
 (let ((?x935 ((_ extract 575 568) mem_c0000f45_79_992)))
 (let ((?x4611 ((_ extract 567 560) mem_c0000f45_79_992)))
 (let ((?x3400 ((_ extract 559 552) mem_c0000f45_79_992)))
 (let ((?x3784 ((_ extract 551 544) mem_c0000f45_79_992)))
 (let ((?x3913 ((_ extract 543 536) mem_c0000f45_79_992)))
 (let ((?x12701 (concat (concat ((_ extract 527 520) mem_c0000f45_79_992) ((_ extract 535 528) mem_c0000f45_79_992)) ?x3913)))
 (let ((?x13258 (concat ?x12701 ?x3784)))
 (let ((?x13066 (concat (concat (concat (concat ?x13258 ?x3400) ?x4611) ?x935) ?x3977)))
 (bvule ?x13066 (_ bv18446744073709551614 64))))))))))))
(assert
 (let ((?x3977 ((_ extract 583 576) mem_c0000f45_79_992)))
 (let ((?x935 ((_ extract 575 568) mem_c0000f45_79_992)))
 (let ((?x4611 ((_ extract 567 560) mem_c0000f45_79_992)))
 (let ((?x3400 ((_ extract 559 552) mem_c0000f45_79_992)))
 (let ((?x3784 ((_ extract 551 544) mem_c0000f45_79_992)))
 (let ((?x3913 ((_ extract 543 536) mem_c0000f45_79_992)))
 (let ((?x12701 (concat (concat ((_ extract 527 520) mem_c0000f45_79_992) ((_ extract 535 528) mem_c0000f45_79_992)) ?x3913)))
 (let ((?x13258 (concat ?x12701 ?x3784)))
 (let ((?x13066 (concat (concat (concat (concat ?x13258 ?x3400) ?x4611) ?x935) ?x3977)))
 (= (_ bv0 64) ?x13066)))))))))))
(assert
 (and (distinct (_ bv10 8) mem_0_345_8) true))
(maximize mem_c0001010_98_32)
(maximize mem_c0000f45_79_992)
(minimize mem_c0080024_86_32)
(maximize mem_c0080024_86_32)
(maximize mem_c0080010_84_32)
(minimize mem_c0001010_98_32)
(minimize mem_c0080020_87_32)
(minimize mem_c0000f45_79_992)
(minimize mem_0_345_8)
(minimize mem_c0080018_88_32)
(maximize mem_0_345_8)
(minimize mem_c0080008_85_32)
(maximize mem_c0080008_85_32)
(minimize syscall_stub_newfstatat_83_64)
(minimize mem_c0080014_89_32)
(minimize mem_c0080010_84_32)
(maximize mem_c0080014_89_32)
(maximize syscall_stub_newfstatat_83_64)
(maximize mem_c0080018_88_32)
(check-sat)
(get-objectives)
